p cnf 7230 17
-5379 6088 -6094 0
5379 -6088 0
5965 5977 -6089 0
-5965 -6090 0
6091 6092 0
5967 -6092 0
-5967 -6091 0
6089 6090 0
6093 6094 0
5969 -6094 0
-5969 -6093 0
-5977 -6090 0
5825 5971 6096 0
-5971 -6096 0
-5825 -6096 0
6087 6088 0
-6087 -6088 0
